(declare-fun Constructed_Argument_t () String)
(declare-fun CreateAsClass () Bool)
(declare-fun ExpandObjSwitcher () Real)
(assert (= Constructed_Argument_t "null"))
(assert (not CreateAsClass))
(assert (= ExpandObjSwitcher 0.0))
(assert false)
(check-sat)
